\ Model Master problem
\ LP format - for model browsing. Use MPS format to capture full model detail.
Minimize
  213 y[0] + 114 y[1] + 112 y[2] + 104 y[3] + 104 y[4] + 102 y[5] + 102 y[6]
   + 100 y[7] + 94 y[8] + 90 y[9] + 90 y[10] + 90 y[11] + 90 y[12]
   + 88 y[13] + 86 y[14] + 82 y[15] + 82 y[16] + 80 y[17] + 80 y[18]
   + 80 y[19] + 80 y[20] + 78 y[21] + 78 y[22] + 78 y[23] + 76 y[24]
   + 76 y[25] + 76 y[26] + 74 y[27] + 72 y[28] + 72 y[29] + 70 y[30]
   + 70 y[31] + 70 y[32] + 70 y[33] + 70 y[34] + 70 y[35] + 68 y[36]
   + 68 y[37] + 68 y[38] + 66 y[39] + 64 y[40] + 64 y[41] + 64 y[42]
   + 62 y[43] + 62 y[44] + 62 y[45] + 60 y[46] + 54 y[47] + 52 y[48]
   + 50 y[49] + 50 y[50] + 48 y[51] + 48 y[52] + 46 y[53] + 44 y[54]
   + 44 y[55] + 44 y[56] + 44 y[57] + 42 y[58] + 42 y[59] + 42 y[60]
   + 80 y[61] + 42 y[62] + 42 y[63] + 40 y[64] + 40 y[65] + 40 y[66]
   + 40 y[67] + 38 y[68] + 38 y[69] + 38 y[70] + 69 y[71] + 36 y[72]
   + 36 y[73] + 36 y[74] + 36 y[75] + 36 y[76] + 34 y[77] + 34 y[78]
   + 34 y[79] + 34 y[80] + 32 y[81] + 32 y[82] + 32 y[83] + 32 y[84]
   + 30 y[85] + 30 y[86] + 30 y[87] + 28 y[88] + 26 y[89] + 26 y[90]
   + 24 y[91] + 20 y[92]
Subject To
 R0: y[61] = 1
 R1: y[0] = 1
 R2: y[81] = 1
 R3: y[72] = 1
 R4: y[85] = 1
 R5: y[68] = 1
 R6: y[82] = 1
 R7: y[73] = 1
 R8: y[64] = 1
 R9: y[77] = 1
 R10: y[65] = 1
 R11: y[24] = 1
 R12: y[43] = 1
 R13: y[21] = 1
 R14: y[28] = 1
 R15: y[17] = 1
 R16: y[39] = 1
 R17: y[30] = 1
 R18: y[22] = 1
 R19: y[92] = 1
 R20: y[61] = 1
 R21: y[0] = 1
 R22: y[89] = 1
 R23: y[86] = 1
 R24: y[87] = 1
 R25: y[83] = 1
 R26: y[78] = 1
 R27: y[74] = 1
 R28: y[66] = 1
 R29: y[58] = 1
 R30: y[36] = 1
 R31: y[40] = 1
 R32: y[37] = 1
 R33: y[41] = 1
 R34: y[25] = 1
 R35: y[31] = 1
 R36: y[23] = 1
 R37: y[15] = 1
 R38: y[18] = 1
 R39: y[59] = 1
 R40: y[69] = 1
 R41: y[70] = 1
 R42: y[79] = 1
 R43: y[54] = 1
 R44: y[55] = 1
 R45: y[60] = 1
 R46: y[75] = 1
 R47: y[53] = 1
 R48: y[71] = 1
 R49: y[0] = 1
 R50: y[49] = 1
 R51: y[61] = 1
 R52: y[9] = 1
 R53: y[19] = 1
 R54: y[32] = 1
 R55: y[10] = 1
 R56: y[33] = 1
 R57: y[11] = 1
 R58: y[34] = 1
 R59: y[12] = 1
 R60: y[56] = 1
 R61: y[76] = 1
 R62: y[88] = 1
 R63: y[57] = 1
 R64: y[90] = 1
 R65: y[80] = 1
 R66: y[91] = 1
 R67: y[62] = 1
 R68: y[84] = 1
 R69: y[0] = 1
 R70: y[1] = 1
 R71: y[51] = 1
 R72: y[2] = 1
 R73: y[67] = 1
 R74: y[71] = 1
 R75: y[3] = 1
 R76: y[4] = 1
 R77: y[7] = 1
 R78: y[5] = 1
 R79: y[6] = 1
 R80: y[8] = 1
 R81: y[35] = 1
 R82: y[42] = 1
 R83: y[44] = 1
 R84: y[46] = 1
 R85: y[48] = 1
 R86: y[50] = 1
 R87: y[47] = 1
 R88: y[52] = 1
 R89: y[63] = 1
 R90: y[0] = 1
 R91: y[13] = 1
 R92: y[14] = 1
 R93: y[16] = 1
 R94: y[27] = 1
 R95: y[29] = 1
 R96: y[20] = 1
 R97: y[45] = 1
 R98: y[38] = 1
 R99: y[26] = 1
Bounds
End
